c ren 1 -> 1
c ren 2 -> 2
c ren 4 -> 3
c ren 7 -> 4
c ren 9 -> 5
c ren 10 -> 6
c ren 12 -> 7
c ren 15 -> 8
c ren 18 -> 9
c ren 19 -> 10
c ren 21 -> 11
c ren 24 -> 12
c ren 27 -> 13
c ren 28 -> 14
c ren 29 -> 15
c ren 32 -> 16
c ren 35 -> 17
c ren 88 -> 18
c ren 90 -> 19
c ren 116 -> 20
c ren 123 -> 21
c ren 129 -> 22
p cnf 22 40
a 1 2 3 5 6 7 9 10 11 13 14 15 16 19 22 0
d 18 1 5 0
d 20 9 13 0
d 21 14 22 0
e 4 8 12 17 0
-1 2 3 4 0
-2 -4 -8 10 -12 14 15 16 -17 -18 22 0
-2 -4 -8 10 -12 15 16 -17 -18 -21 0
-5 6 7 8 0
-2 -4 -8 10 -11 -12 15 16 -17 -18 19 0
-9 10 11 12 0
5 -6 8 0
2 3 -4 6 7 -8 -11 -12 -17 19 -20 0
9 -11 12 0
2 3 -4 6 7 -8 -10 -12 -17 19 -20 0
-13 -14 15 16 17 0
2 3 -4 6 7 -8 -12 -16 -17 19 -20 0
13 -15 17 0
2 3 -4 6 7 -8 -12 14 -17 19 -20 0
9 -10 12 0
13 -16 17 0
13 14 17 0
2 3 -4 6 7 -8 -12 15 16 -17 18 -19 0
-4 -7 -8 10 -12 15 16 -17 -18 -21 0
2 3 -4 6 7 -8 -12 -15 -17 19 -20 0
-4 -7 -8 -12 15 16 -17 -18 -19 0
2 3 -4 6 7 -8 10 11 -12 -14 15 16 -17 19 20 0
5 -7 8 0
-4 -6 -8 -12 15 16 -17 -18 -19 0
2 3 -4 6 7 -8 10 11 -12 14 15 16 -17 19 21 -22 0
-3 -4 -8 10 -12 15 16 -17 -18 -21 0
-4 -6 -8 10 -12 14 15 16 -17 -18 22 0
-3 -4 -8 10 -12 14 15 16 -17 -18 22 0
-2 -4 -8 -12 15 16 -17 -18 -19 0
-3 -4 -8 -12 15 16 -17 -18 -19 0
-3 -4 -8 10 -11 -12 15 16 -17 -18 19 0
1 -2 4 0
-4 -7 -8 10 -12 14 15 16 -17 -18 22 0
-4 -6 -8 10 -11 -12 15 16 -17 -18 19 0
2 3 -4 6 7 -8 10 -12 14 15 16 -17 18 -22 0
1 -3 4 0
-4 -6 -8 10 -12 15 16 -17 -18 -21 0
2 3 -4 6 7 -8 10 -11 -12 15 16 -17 18 19 0
-4 -7 -8 10 -11 -12 15 16 -17 -18 19 0
2 3 -4 6 7 -8 10 -12 14 15 16 -17 18 22 0
